Maximize
	- 2 x1 - 1 x2 - 4 x3 + 5 x4 
Maximize
	- 2 x1 + 5 x3 
Maximize
	- 4 x1 - 2 x3 - 1 x4 
Subject To
	+ 2 x1 + 1 x2 + 2 x3 + 1 x4 <= 8
	- 3 x1 - 3 x2 + 2 x4 <= 5
	+ 4 x1 + 2 x2 + 4 x4 <= 3
	- 1 x1 + 2 x3 - 3 x4 <= 2
	- 4 x4 <= 9
Bounds
	0 <= x1 <= 4
	0 <= x2 <= 4
	0 <= x3 <= 4
	0 <= x4 <= 4
Integers
	x1 x2 x3 x4 
End